Data path: /scratch/opt/lxu/CFLG/benchmarks/Kgroup_B
Instance: K400.7.con.red
Result path: /scratch/opt/lxu/CFLG/results/Kgroup_B
Solver: Gurobi
Time limit: 3600
Formulation: EVFP
Cover: Small
julia --project=. src/main.jl /scratch/opt/lxu/CFLG/benchmarks/Kgroup_B K400.7.con.red /scratch/opt/lxu/CFLG/results/Kgroup_B Gurobi 3600 EVFP Small
The latest version of Julia in the `release` channel is 1.11.5+0.x64.linux.gnu. You currently have `1.11.4+0.x64.linux.gnu` installed. Run:

  juliaup update

in your terminal shell to install Julia 1.11.5+0.x64.linux.gnu and update the `release` channel to that version.
/scratch/opt/lxu/CFLG/benchmarks/Kgroup_B Gurobi 3600.0 /scratch/opt/lxu/CFLG/results/Kgroup_B K400.7.con.red EVFP Small
/scratch/opt/lxu/CFLG/benchmarks/Kgroup_B/K400.7.con.red

 read graph
data loaded


after absorb:225 225

max_piece:6
problem_graph/original graph: node: 633/225 edge: 1275/867 dlt: 0.17881716175438125 break_avg_len: 0.1215956699929793 break_max_len: 0.17864429256350098elapsed CPU time: 0.325387 seconds
Set parameter TokenServer to value "solice01.zib.de"
Set parameter Threads to value 1
Set parameter OutputFlag to value 1
Set parameter MIPGap to value 0.0001
Set parameter MIPGapAbs to value 1
Set parameter TimeLimit to value 3599.674613
vertex var

 model loaded

Gurobi Optimizer version 12.0.1 build v12.0.1rc0 (linux64 - "Debian GNU/Linux 12 (bookworm)")

CPU model: Intel(R) Xeon(R) Gold 5122 CPU @ 3.60GHz, instruction set [SSE2|AVX|AVX2|AVX512]
Thread count: 8 physical cores, 16 logical processors, using up to 1 threads

Non-default parameters:
TimeLimit  3599.674613
MIPGapAbs  1
Threads  1

Optimize a model with 67497 rows, 32648 columns and 192135 nonzeros
Model fingerprint: 0x2a457ce0
Variable types: 1908 continuous, 30740 integer (30740 binary)
Coefficient statistics:
  Matrix range     [1e-06, 1e+00]
  Objective range  [1e+00, 1e+00]
  Bounds range     [5e-03, 2e-01]
  RHS range        [5e-03, 2e+01]
Found heuristic solution: objective 1058.0000000
Presolve removed 9266 rows and 40 columns
Presolve time: 1.32s
Presolved: 58231 rows, 32608 columns, 215672 nonzeros
Variable types: 1908 continuous, 30700 integer (30700 binary)

Root relaxation: objective 6.520894e+01, 27868 iterations, 2.69 seconds (2.49 work units)
Total elapsed time = 6.66s (DegenMoves)

    Nodes    |    Current Node    |     Objective Bounds      |     Work
 Expl Unexpl |  Obj  Depth IntInf | Incumbent    BestBd   Gap | It/Node Time

     0     0   65.20894    0 3791 1058.00000   65.20894  93.8%     -    8s
H    0     0                     989.0000000   65.20894  93.4%     -    8s
H    0     0                     861.0000000   65.20894  92.4%     -    8s
H    0     0                     856.0000000   65.20894  92.4%     -    8s
H    0     0                     855.0000000   65.20894  92.4%     -    8s
H    0     0                     853.0000000   65.20894  92.4%     -    9s
H    0     0                     851.0000000   65.20894  92.3%     -    9s
H    0     0                     850.0000000   65.20894  92.3%     -    9s
H    0     0                     849.0000000   65.20894  92.3%     -    9s
H    0     0                     847.0000000   65.20894  92.3%     -    9s
H    0     0                     846.0000000   65.20894  92.3%     -    9s
H    0     0                     845.0000000   65.20894  92.3%     -    9s
H    0     0                     844.0000000   65.20894  92.3%     -    9s
H    0     0                     838.0000000   65.20894  92.2%     -    9s
     0     0   68.60792    0 3956  838.00000   68.60792  91.8%     -   14s
H    0     0                     764.0000000   68.64766  91.0%     -   15s
H    0     0                     751.0000000   68.64766  90.9%     -   15s
H    0     0                     658.0000000   68.64766  89.6%     -   15s
H    0     0                     635.0000000   68.64766  89.2%     -   15s
H    0     0                     627.0000000   68.64766  89.1%     -   15s
H    0     0                     626.0000000   68.64766  89.0%     -   15s
H    0     0                     622.0000000   68.64766  89.0%     -   15s
H    0     0                     620.0000000   68.64766  88.9%     -   15s
H    0     0                     619.0000000   68.64766  88.9%     -   15s
H    0     0                     618.0000000   68.64766  88.9%     -   15s
     0     0   75.09339    0 4723  618.00000   75.09339  87.8%     -   20s
     0     0   75.97702    0 4692  618.00000   75.97702  87.7%     -   23s
     0     0   76.06532    0 4590  618.00000   76.06532  87.7%     -   24s
     0     0   76.06957    0 4584  618.00000   76.06957  87.7%     -   24s
     0     0   76.07298    0 4601  618.00000   76.07298  87.7%     -   24s
     0     0   76.07298    0 4605  618.00000   76.07298  87.7%     -   24s
     0     0   86.02089    0 4526  618.00000   86.02089  86.1%     -   33s
H    0     0                     614.0000000   86.02613  86.0%     -   33s
H    0     0                     606.0000000   86.02613  85.8%     -   33s
     0     0   86.45520    0 4236  606.00000   86.45520  85.7%     -   34s
     0     0   87.38234    0 4419  606.00000   87.38234  85.6%     -   38s
     0     0   87.73896    0 4351  606.00000   87.73896  85.5%     -   41s
     0     0   87.85511    0 4493  606.00000   87.85511  85.5%     -   43s
     0     0   87.88269    0 4593  606.00000   87.88269  85.5%     -   44s
     0     0   87.92313    0 4552  606.00000   87.92313  85.5%     -   45s
     0     0   87.93209    0 4519  606.00000   87.93209  85.5%     -   45s
     0     0   87.93396    0 4517  606.00000   87.93396  85.5%     -   46s
     0     0   94.31542    0 3881  606.00000   94.31542  84.4%     -   53s
H    0     0                     447.0000000   94.41220  78.9%     -   53s
H    0     0                     441.0000000   94.41220  78.6%     -   53s
H    0     0                     394.0000000   94.41220  76.0%     -   53s
H    0     0                     388.0000000   94.41220  75.7%     -   53s
H    0     0                     385.0000000   94.41220  75.5%     -   53s
H    0     0                     384.0000000   94.41220  75.4%     -   53s
H    0     0                     383.0000000   94.41220  75.3%     -   53s
H    0     0                     381.0000000   94.41220  75.2%     -   53s
     0     0   95.20253    0 3970  381.00000   95.20253  75.0%     -   58s
     0     0   95.61564    0 4260  381.00000   95.61564  74.9%     -   62s
     0     0   95.78102    0 3880  381.00000   95.78102  74.9%     -   64s
     0     0   95.85681    0 3911  381.00000   95.85681  74.8%     -   65s
     0     0   95.87157    0 3910  381.00000   95.87157  74.8%     -   66s
     0     0   95.88031    0 3914  381.00000   95.88031  74.8%     -   67s
     0     0   95.89724    0 3835  381.00000   95.89724  74.8%     -   67s
     0     0   95.90250    0 3850  381.00000   95.90250  74.8%     -   68s
     0     0  100.77459    0 3865  381.00000  100.77459  73.5%     -   76s
H    0     0                     357.0000000  100.89959  71.7%     -   76s
H    0     0                     355.0000000  100.89959  71.6%     -   76s
     0     0  101.40123    0 3776  355.00000  101.40123  71.4%     -   79s
     0     0  101.61947    0 3985  355.00000  101.61947  71.4%     -   82s
     0     0  101.67617    0 4029  355.00000  101.67617  71.4%     -   83s
     0     0  101.73692    0 3989  355.00000  101.73692  71.3%     -   84s
     0     0  101.74464    0 4014  355.00000  101.74464  71.3%     -   85s
     0     0  102.94436    0 4009  355.00000  102.94436  71.0%     -   94s
H    0     0                     340.0000000  102.95652  69.7%     -   94s
H    0     0                     336.0000000  102.95652  69.4%     -   94s
H    0     0                     313.0000000  102.95652  67.1%     -   94s
H    0     0                     294.0000000  102.95652  65.0%     -   94s
H    0     0                     292.0000000  102.95652  64.7%     -   94s
H    0     0                     286.0000000  102.95652  64.0%     -   94s
H    0     0                     285.0000000  102.95652  63.9%     -   94s
H    0     0                     282.0000000  102.95652  63.5%     -   94s
H    0     0                     281.0000000  102.95652  63.4%     -   94s
H    0     0                     280.0000000  102.95652  63.2%     -   94s
H    0     0                     278.0000000  102.95652  63.0%     -   94s
     0     0  103.20370    0 4090  278.00000  103.20370  62.9%     -   98s
     0     0  103.41216    0 4032  278.00000  103.41216  62.8%     -  102s
     0     0  103.45066    0 4253  278.00000  103.45066  62.8%     -  104s
     0     0  103.50045    0 4201  278.00000  103.50045  62.8%     -  105s
     0     0  103.52289    0 4217  278.00000  103.52289  62.8%     -  106s
     0     0  103.54679    0 4195  278.00000  103.54679  62.8%     -  108s
     0     0  103.55763    0 4153  278.00000  103.55763  62.7%     -  108s
     0     0  104.51260    0 4218  278.00000  104.51260  62.4%     -  115s
H    0     0                     264.0000000  104.61320  60.4%     -  116s
H    0     0                     262.0000000  104.61320  60.1%     -  116s
H    0     0                     261.0000000  104.61320  59.9%     -  117s
H    0     0                     235.0000000  104.61320  55.5%     -  117s
H    0     0                     233.0000000  104.61320  55.1%     -  118s
H    0     0                     231.0000000  104.61320  54.7%     -  118s
H    0     0                     212.0000000  104.61320  50.7%     -  120s
H    0     0                     211.0000000  104.61320  50.4%     -  121s
H    0     0                     210.0000000  104.61320  50.2%     -  121s
H    0     0                     207.0000000  104.61320  49.5%     -  122s
H    0     0                     206.0000000  104.61320  49.2%     -  122s
H    0     0                     205.0000000  104.61320  49.0%     -  122s
H    0     0                     192.0000000  104.61320  45.5%     -  124s
H    0     0                     187.0000000  104.61320  44.1%     -  125s
     0     0  104.74137    0 4470  187.00000  104.74137  44.0%     -  133s
     0     0  104.79202    0 4490  187.00000  104.79202  44.0%     -  135s
     0     0  104.83181    0 4364  187.00000  104.83181  43.9%     -  136s
     0     0  104.85837    0 4455  187.00000  104.85837  43.9%     -  137s
     0     0  104.87048    0 4414  187.00000  104.87048  43.9%     -  138s
     0     0  104.87323    0 4493  187.00000  104.87323  43.9%     -  138s
     0     0  105.22802    0 4331  187.00000  105.22802  43.7%     -  144s
H    0     0                     186.0000000  105.22807  43.4%     -  146s
     0     0  105.27407    0 4385  186.00000  105.27407  43.4%     -  148s
     0     0  105.30536    0 4279  186.00000  105.30536  43.4%     -  150s
     0     0  105.31327    0 4291  186.00000  105.31327  43.4%     -  150s
     0     0  105.64211    0 4267  186.00000  105.64211  43.2%     -  156s
     0     0  105.75136    0 4226  186.00000  105.75136  43.1%     -  160s
     0     0  105.83313    0 4322  186.00000  105.83313  43.1%     -  164s
     0     0  105.85115    0 4322  186.00000  105.85115  43.1%     -  165s
     0     0  105.89642    0 4473  186.00000  105.89642  43.1%     -  169s
     0     0  105.91311    0 4509  186.00000  105.91311  43.1%     -  170s
     0     0  105.91805    0 4479  186.00000  105.91805  43.1%     -  171s
     0     0  106.31948    0 4096  186.00000  106.31948  42.8%     -  178s
H    0     0                     184.0000000  106.32006  42.2%     -  180s
     0     0  106.37638    0 4380  184.00000  106.37638  42.2%     -  182s
     0     0  106.41041    0 4362  184.00000  106.41041  42.2%     -  184s
     0     0  106.42610    0 4570  184.00000  106.42610  42.2%     -  186s
     0     0  106.43392    0 4575  184.00000  106.43392  42.2%     -  188s
     0     0  106.66045    0 4357  184.00000  106.66045  42.0%     -  193s
     0     0  106.73579    0 4392  184.00000  106.73579  42.0%     -  195s
     0     0  106.78494    0 4388  184.00000  106.78494  42.0%     -  197s
     0     0  106.78818    0 4393  184.00000  106.78818  42.0%     -  198s
     0     0  106.93364    0 4250  184.00000  106.93364  41.9%     -  205s
H    0     0                     182.0000000  106.93364  41.2%     -  206s
     0     0  106.97150    0 4233  182.00000  106.97150  41.2%     -  208s
     0     0  106.98832    0 4462  182.00000  106.98832  41.2%     -  210s
     0     0  107.00228    0 4676  182.00000  107.00228  41.2%     -  213s
     0     0  107.12381    0 4564  182.00000  107.12381  41.1%     -  218s
     0     0  107.16788    0 4655  182.00000  107.16788  41.1%     -  221s
     0     0  107.18361    0 4778  182.00000  107.18361  41.1%     -  224s
     0     0  107.33366    0 4724  182.00000  107.33366  41.0%     -  232s
     0     0  107.36134    0 4691  182.00000  107.36134  41.0%     -  236s
     0     0  107.38204    0 4950  182.00000  107.38204  41.0%     -  239s
     0     0  107.38711    0 4749  182.00000  107.38711  41.0%     -  241s
     0     0  107.52869    0 4679  182.00000  107.52869  40.9%     -  249s
H    0     0                     180.0000000  107.52869  40.3%     -  251s
     0     0  107.55602    0 4723  180.00000  107.55602  40.2%     -  256s
     0     0  107.56427    0 4612  180.00000  107.56427  40.2%     -  257s
     0     0  107.64266    0 4646  180.00000  107.64266  40.2%     -  263s
H    0     0                     179.0000000  107.64356  39.9%     -  264s
     0     0  107.65711    0 4815  179.00000  107.65711  39.9%     -  266s
     0     0  107.70153    0 4558  179.00000  107.70153  39.8%     -  270s
     0     0  107.70153    0 3932  179.00000  107.70153  39.8%     -  277s
     0     2  107.70156    0 3848  179.00000  107.70156  39.8%     -  325s
     3     5  107.95565    2 3615  179.00000  107.78014  39.8%  7535  330s
    10    12  108.08095    7 3592  179.00000  107.81997  39.8%  3134  336s
    15    17  107.91395   10 3612  179.00000  107.81997  39.8%  2567  340s
    21    23  108.14888   13 3574  179.00000  107.81997  39.8%  2192  346s
    25    27  108.65745   16 3576  179.00000  107.81997  39.8%  2219  351s
H   26    26                     178.0000000  107.81997  39.4%  2134  387s
    31    33  108.89532   20 3427  178.00000  107.81997  39.4%  1900  390s
    40    42  109.72371   25 3223  178.00000  107.81997  39.4%  1683  395s
    54    56  111.37458   33 3085  178.00000  107.81997  39.4%  1405  401s
    61    63  111.43942   38 3095  178.00000  107.81997  39.4%  1325  405s
    74    76  112.12917   46 3053  178.00000  107.81997  39.4%  1211  410s
    88    90  113.04266   56 2886  178.00000  107.81997  39.4%  1137  415s
   100   102  112.61111   65 2882  178.00000  107.81997  39.4%  1088  420s
H  108   108                     177.0000000  107.81997  39.1%  1040  423s
   114   116  112.72507   76 3207  177.00000  107.81997  39.1%  1032  425s
   127   129  113.26696   83 2938  177.00000  107.81997  39.1%  1005  430s
H  135   135                     176.0000000  107.81997  38.7%   965  432s
   141   143  113.23442   93 3013  176.00000  107.81997  38.7%   959  435s
   158   160  113.89300  104 2961  176.00000  107.81997  38.7%   932  440s
   176   177  114.84944  116 2826  176.00000  107.81997  38.7%   900  445s
   192   193  114.75802  130 2739  176.00000  107.81997  38.7%   862  450s
   211   212  115.09461  145 2601  176.00000  107.81997  38.7%   841  455s
H  216   215                     175.0000000  107.81997  38.4%   833  458s
   217   218  115.18136  151 2708  175.00000  107.81997  38.4%   833  460s
   229   230  115.51212  159 2609  175.00000  107.81997  38.4%   847  465s
   243   244  115.56508  171 2579  175.00000  107.81997  38.4%   837  473s
   250   251  115.58791  176 2575  175.00000  107.81997  38.4%   830  475s
   268   269  116.49269  187 2485  175.00000  107.81997  38.4%   821  480s
   280   281  116.72880  195 2358  175.00000  107.81997  38.4%   813  485s
   307   308  117.50582  217 2254  175.00000  107.81997  38.4%   777  490s
   335   336  118.17757  236 2211  175.00000  107.81997  38.4%   747  495s
   351   352  118.32759  248 2069  175.00000  107.81997  38.4%   735  500s
   386   386  119.52415  273 2187  175.00000  107.81997  38.4%   698  505s
   432   432  120.09685  305 2084  175.00000  107.81997  38.4%   641  513s
   449   449  120.27516  317 2098  175.00000  107.81997  38.4%   626  515s
   467   467  121.32307  330 2047  175.00000  107.81997  38.4%   619  520s
   505   505  121.71051  358 2119  175.00000  107.81997  38.4%   593  525s
   527   527  122.00408  373 2083  175.00000  107.81997  38.4%   586  530s
   567   567  122.44855  407 1960  175.00000  107.81997  38.4%   562  536s
   600   600  123.79616  432 1992  175.00000  107.81997  38.4%   545  540s
   636   636  124.66239  457 1883  175.00000  107.81997  38.4%   534  545s
   677   677  125.97354  485 1583  175.00000  107.81997  38.4%   524  550s
   702   702  126.15050  505 1600  175.00000  107.81997  38.4%   520  555s
   756   756  127.65568  544 1381  175.00000  107.81997  38.4%   492  561s
   783   783  128.68369  564 1584  175.00000  107.81997  38.4%   487  565s
   837   837  130.97079  608 1627  175.00000  107.81997  38.4%   464  570s
   891   887  133.87147  652 1202  175.00000  107.81997  38.4%   447  575s
   933   926  136.35899  685 1048  175.00000  107.81997  38.4%   439  580s
   979   965  108.18611    4 3499  175.00000  107.82060  38.4%   426  586s
H  980   965                     174.0000000  107.82060  38.0%   426  596s
   981   966  117.51348  218 3932  174.00000  107.82060  38.0%   426  637s
   983   967  136.35899  679 5605  174.00000  107.82060  38.0%   425  685s
   984   968  135.39888  675 4277  174.00000  107.82060  38.0%   424  721s
   985   969  125.97354  479 4355  174.00000  108.56073  37.6%   424  737s
   986   969  109.53381   19 4440  174.00000  109.53381  37.0%   423  751s
   987   970  113.04281   57 4555  174.00000  109.79684  36.9%   423  759s
   988   971  122.45951  405 4568  174.00000  109.95489  36.8%   422  768s
   989   971  129.32848  572 4604  174.00000  109.98266  36.8%   422  773s
   990   972  136.74537  689 4643  174.00000  109.99510  36.8%   422  776s
   992   973  138.47655  705 4682  174.00000  110.00161  36.8%   421  780s
   994   975  124.66272  458 4709  174.00000  110.00401  36.8%   420  788s
   995   975  115.70619  162 3727  174.00000  114.18316  34.4%   420  814s
   996   976  124.03443  424 4191  174.00000  114.42054  34.2%   419  823s
   997   977  114.57044    3 4370  174.00000  114.57044  34.2%   419  831s
   998   977  126.14472  491 4334  174.00000  114.61403  34.1%   418  835s
  1004   981  122.01620  377 4406  174.00000  114.63707  34.1%   416  845s
  1005   982  117.52203  101 4476  174.00000  117.52203  32.5%   415  877s
  1006   983  122.41276  398 4569  174.00000  118.08168  32.1%   415  892s
  1007   983  140.39169  714 4813  174.00000  118.18036  32.1%   415  900s
  1009   985  118.23755   75 4851  174.00000  118.23755  32.0%   414  906s
  1011   986  122.40553  399 4854  174.00000  118.23980  32.0%   413  914s
  1012   987  119.72729  293 4210  174.00000  119.50422  31.3%   412  948s
  1013   987  137.54866  696 4631  174.00000  119.82241  31.1%   412  964s
  1014   988  119.90208  156 4885  174.00000  119.90208  31.1%   412  973s
  1015   989  119.93635  246 5006  174.00000  119.93635  31.1%   411  980s
  1017   990  138.51348  710 4993  174.00000  119.95842  31.1%   410  986s
  1019   991  129.99737  590 5078  174.00000  119.96013  31.1%   410  993s
  1020   992  126.16726  470 4485  174.00000  121.25149  30.3%   409 1022s
  1021   993  121.37933  294 4721  174.00000  121.37933  30.2%   409 1031s
  1022   993  133.87147  651 5013  174.00000  121.49325  30.2%   408 1040s
  1023   994  121.52762  288 5128  174.00000  121.52762  30.2%   408 1046s
  1025   995  124.46977  454 5165  174.00000  121.55071  30.1%   407 1051s
  1028   997  129.78278  585 5236  174.00000  121.55744  30.1%   406 1055s
  1029   998  121.55802  273 5277  174.00000  121.55802  30.1%   406 1062s
  1030   999  122.49764  396 4619  174.00000  122.49764  29.6%   405 1105s
  1031   999  122.67837  389 5174  174.00000  122.67837  29.5%   405 1121s
  1032  1000  122.74500   29 5311  174.00000  122.74500  29.5%   404 1135s
  1033  1001  130.19679  602 5303  174.00000  122.78761  29.4%   404 1143s
  1034  1001  124.46977  454 5369  174.00000  122.79723  29.4%   404 1146s
  1036  1003  122.80444  123 5559  174.00000  122.80444  29.4%   403 1151s
  1038  1004  133.87551  649 5534  174.00000  122.80596  29.4%   402 1161s
  1039  1005  133.37185  646 4826  174.00000  123.42843  29.1%   402 1195s
  1040  1005  136.98721  694 5347  174.00000  123.57286  29.0%   401 1204s
  1041  1006  123.69534  390 5303  174.00000  123.69534  28.9%   401 1216s
  1042  1007  123.71928  378 5251  174.00000  123.71928  28.9%   401 1223s
  1043  1007  123.72567  415 5481  174.00000  123.72567  28.9%   400 1226s
  1045  1009  133.38687  633 5615  174.00000  123.72982  28.9%   399 1230s
  1047  1010  126.38921  493 5559  174.00000  123.73084  28.9%   399 1239s
  1048  1011  124.44963  276 4863  174.00000  124.44963  28.5%   398 1269s
  1049  1011  124.56795  273 5385  174.00000  124.56795  28.4%   398 1286s
  1050  1012  124.60846  200 5534  174.00000  124.60846  28.4%   398 1295s
  1052  1013  138.47655  708 5563  174.00000  124.63310  28.4%   397 1301s
  1054  1015  127.93142  550 5715  174.00000  124.64002  28.4%   396 1305s
  1056  1016  124.64103  282 5670  174.00000  124.64103  28.4%   395 1314s
  1057  1017  125.23369  174 4877  174.00000  125.23369  28.0%   395 1347s
  1058  1017  125.32800  332 5372  174.00000  125.32800  28.0%   395 1362s
  1059  1018  125.38686  202 5458  174.00000  125.38686  27.9%   394 1373s
  1060  1019  131.30094  617 5483  174.00000  125.40840  27.9%   394 1380s
  1062  1020  129.52982  577 5666  174.00000  125.41891  27.9%   393 1386s
  1064  1021  133.87551  649 5548  174.00000  125.42075  27.9%   392 1390s
  1065  1022  139.96877  714 5554  174.00000  125.42091  27.9%   392 1398s
  1066  1023  126.10119  396 4703  174.00000  126.10119  27.5%   392 1431s
  1067  1023  126.17706  470 5328  174.00000  126.17336  27.5%   391 1446s
  1068  1024  137.29796  700 5516  174.00000  126.22864  27.5%   391 1458s
  1069  1025  126.25535  396 5356  174.00000  126.25535  27.4%   390 1463s
  1070  1025  129.35767  558 5656  174.00000  126.26569  27.4%   390 1469s
  1071  1026  126.27098  261 5630  174.00000  126.27098  27.4%   390 1472s
  1073  1027  139.96877  714 5723  174.00000  126.27223  27.4%   389 1483s
  1074  1028  126.75232  408 5047  174.00000  126.75232  27.2%   389 1518s
  1075  1029  126.84126  428 5549  174.00000  126.84126  27.1%   388 1530s
  1076  1029  126.86624  460 5647  174.00000  126.86624  27.1%   388 1537s
  1077  1030  126.88308   24 5880  174.00000  126.88308  27.1%   388 1544s
  1078  1031  126.89060  354 5733  174.00000  126.89060  27.1%   387 1549s
  1079  1031  126.89277    6 5831  174.00000  126.89277  27.1%   387 1552s
  1081  1033  126.89813  218 5782  174.00000  126.89813  27.1%   386 1555s
  1083  1034  136.35899  679 5880  174.00000  126.89905  27.1%   385 1565s
  1084  1035  135.39888  675 5221  174.00000  127.23931  26.9%   385 1708s
  1085  1035  127.29855  479 5696  174.00000  127.29855  26.8%   385 1724s
  1086  1036  127.33161   19 5894  174.00000  127.33161  26.8%   384 1731s
  1087  1037  127.35422   57 5857  174.00000  127.35422  26.8%   384 1736s
  1089  1038  129.32848  572 5909  174.00000  127.36493  26.8%   383 1742s
  1091  1039  127.36850  319 5986  174.00000  127.36850  26.8%   383 1746s
  1093  1041  127.37068   46 6023  174.00000  127.37068  26.8%   382 1756s
  1094  1041  127.69843  458 5221  174.00000  127.69843  26.6%   382 1783s
  1095  1042  127.75525  162 5765  174.00000  127.75525  26.6%   381 1802s
  1096  1043  127.77816  424 5828  174.00000  127.77816  26.6%   381 1809s
  1097  1043  127.79395    3 5971  174.00000  127.79395  26.6%   381 1816s
  1098  1044  127.80011  491 5926  174.00000  127.80011  26.6%   380 1820s
  1100  1045  130.24278  594 6225  174.00000  127.80471  26.5%   379 1825s
  1101  1046  127.80507  230 6211  174.00000  127.80507  26.5%   379 1833s
  1102  1047  128.04116  286 5622  174.00000  128.04116  26.4%   379 1864s
  1103  1047  133.20811  624 5848  174.00000  128.08714  26.4%   378 1880s
  1104  1048  128.11813  377 6027  174.00000  128.11813  26.4%   378 1892s
  1105  1049  128.14067  101 5949  174.00000  128.14067  26.4%   378 1898s
  1106  1049  128.14595  398 6063  174.00000  128.14595  26.4%   377 1900s
  1109  1051  128.14858   75 6150  174.00000  128.14858  26.4%   376 1912s
H 1109   996                     173.0000000  128.37312  25.8%   376 1942s
  1111   998  128.41445  399 6158  173.00000  128.41445  25.8%   376 1957s
  1112   998  128.43148  293 6152  173.00000  128.43148  25.8%   375 1962s
  1113   999  137.54866  696 6210  173.00000  128.44855  25.8%   375 1970s
  1115  1000  128.45878  246 6488  173.00000  128.45878  25.7%   374 1976s
  1116  1001  131.30094  617 6459  173.00000  128.45936  25.7%   374 1989s
  1117  1002  138.51348  710 5405  173.00000  128.87083  25.5%   374 2023s
  1118  1002  128.94658  261 5880  173.00000  128.94658  25.5%   373 2037s
  1119  1003  129.99737  590 6003  173.00000  128.97953  25.4%   373 2047s
  1120  1004  128.99279  470 5976  173.00000  128.99279  25.4%   373 2052s
  1121  1004  128.99916  294 5979  173.00000  128.99916  25.4%   372 2055s
  1123  1006  129.00765  288 6157  173.00000  129.00765  25.4%   372 2062s
  1125  1007  129.00982  454 6325  173.00000  129.00982  25.4%   371 2065s
  1127  1008  129.01083  568 6229  173.00000  129.01083  25.4%   370 2075s
  1128  1009  129.78278  585 5499  173.00000  129.31616  25.3%   370 2107s
  1129  1010  129.38531  273 5866  173.00000  129.38531  25.2%   370 2119s
  1130  1010  129.44045  396 5953  173.00000  129.44045  25.2%   369 2131s
  1131  1011  129.46328  389 6212  173.00000  129.46328  25.2%   369 2141s
  1132  1012  129.46953   29 6267  173.00000  129.46953  25.2%   369 2145s
  1134  1013  129.47346  454 6310  173.00000  129.47346  25.2%   368 2154s
  1135  1014  129.57299  230 5587  173.00000  129.57299  25.1%   368 2179s
  1136  1014  129.61117  123 6122  173.00000  129.61117  25.1%   367 2188s
  1137  1015  129.62794   11 6197  173.00000  129.62794  25.1%   367 2196s
  1138  1016  133.87551  649 6264  173.00000  129.63404  25.1%   367 2203s
  1139  1016  133.37185  646 6359  173.00000  129.63677  25.1%   366 2206s
  1141  1018  129.63891  390 6435  173.00000  129.63891  25.1%   366 2210s
  1142  1018  129.63928  378 6403  173.00000  129.63928  25.1%   366 2218s
  1143  1019  129.71262  415 5565  173.00000  129.71262  25.0%   365 2246s
  1144  1020  129.72383  557 5965  173.00000  129.72383  25.0%   365 2253s
  1145  1020  133.38687  633 6106  173.00000  129.73782  25.0%   365 2264s
  1146  1021  129.74520  342 6170  173.00000  129.74520  25.0%   364 2268s
  1147  1022  129.74726  493 6130  173.00000  129.74726  25.0%   364 2271s
  1149  1023  129.74868  273 6302  173.00000  129.74868  25.0%   363 2280s
  1150  1024  129.85309  200 5668  173.00000  129.85309  24.9%   363 2305s
  1151  1024  129.87625  277 5975  173.00000  129.87625  24.9%   363 2315s
  1152  1025  138.47655  708 6112  173.00000  129.89048  24.9%   362 2320s
  1154  1026  129.90240  550 6183  173.00000  129.90240  24.9%   362 2328s
  1156  1028  129.90604  282 6283  173.00000  129.90604  24.9%   361 2331s
  1158  1029  129.90701  332 6360  173.00000  129.90701  24.9%   360 2339s
H 1158   974                     172.0000000  129.98473  24.4%   360 2363s
  1160   975  131.30094  617 5989  172.00000  130.00426  24.4%   360 2370s
  1161   976  130.02060  255 6367  172.00000  130.02060  24.4%   360 2383s
  1162   977  130.03592  577 6370  172.00000  130.03592  24.4%   359 2390s
  1164   978  133.87551  649 6413  172.00000  130.04113  24.4%   359 2396s
  1165   979  139.96877  714 6490  172.00000  130.04160  24.4%   358 2403s
  1166   979  130.09518  396 5881  172.00000  130.09518  24.4%   358 2426s
  1167   980  130.12091  470 6262  172.00000  130.12091  24.3%   358 2440s
  1168   981  137.29796  700 6155  172.00000  130.12992  24.3%   357 2445s
  1170   982  130.13578  558 6322  172.00000  130.13578  24.3%   357 2451s
  1172   983  130.13664  564 6472  172.00000  130.13664  24.3%   356 2459s
  1173   984  139.96877  714 5766  172.00000  130.22026  24.3%   356 2481s
  1174   985  130.24452  408 6309  172.00000  130.24452  24.3%   356 2493s
  1175   985  130.25598  428 6543  172.00000  130.25598  24.3%   355 2500s
  1177   987  130.26065   24 6599  172.00000  130.26065  24.3%   355 2505s
  1179   988  130.26175    6 6686  172.00000  130.26175  24.3%   354 2513s
  1180   989  137.39167  698 6001  172.00000  130.44501  24.2%   354 2538s
  1181   989  130.46100  218 6600  172.00000  130.46100  24.2%   353 2547s
  1182   990  130.47308  276 6591  172.00000  130.47308  24.1%   353 2552s
  1183   991  136.35899  679 6550  172.00000  130.47563  24.1%   353 2556s
  1185   992  130.47728  479 6670  172.00000  130.47728  24.1%   352 2565s
  1186   993  130.56034   19 5876  172.00000  130.56034  24.1%   352 2591s
  1187   993  130.57270   57 6070  172.00000  130.57270  24.1%   352 2595s
  1188   994  130.57562  405 6448  172.00000  130.57562  24.1%   351 2601s
  1189   995  130.58859  572 6417  172.00000  130.58859  24.1%   351 2608s
  1190   995  136.74537  689 6494  172.00000  130.59206  24.1%   351 2612s
  1192   997  138.47655  705 6625  172.00000  130.59334  24.1%   350 2621s
  1193   997  130.64805   46 5965  172.00000  130.64805  24.0%   350 2642s
  1194   998  130.65287  458 6235  172.00000  130.65287  24.0%   350 2647s
  1195   999  130.65838  162 6464  172.00000  130.65838  24.0%   349 2652s
  1196   999  130.66098  424 6390  172.00000  130.66098  24.0%   349 2656s
  1198  1001  130.66314  491 6560  172.00000  130.66314  24.0%   348 2665s
  1199  1001  130.72328  308 5945  172.00000  130.72328  24.0%   348 2686s
  1200  1002  130.73848  594 6543  172.00000  130.73848  24.0%   348 2699s
  1201  1003  130.74776  230 6694  172.00000  130.74776  24.0%   348 2704s
  1202  1003  130.74948  286 6654  172.00000  130.74948  24.0%   347 2707s
  1203  1004  133.20811  624 6808  172.00000  130.74987  24.0%   347 2714s
  1204  1005  130.75662  377 6433  172.00000  130.75662  24.0%   347 2732s
  1205  1005  130.75752  101 6813  172.00000  130.75752  24.0%   346 2737s
  1206  1006  130.75880  398 6855  172.00000  130.75880  24.0%   346 2741s
  1208  1007  130.75990  546 6932  172.00000  130.75990  24.0%   346 2749s
  1209  1008  130.76799   75 6334  172.00000  130.76799  24.0%   345 2767s
  1210  1009  130.76945  297 6796  172.00000  130.76945  24.0%   345 2772s
  1211  1009  130.76996  399 6752  172.00000  130.76996  24.0%   345 2779s
  1212  1010  130.77409  293 6441  172.00000  130.77409  24.0%   344 2795s
  1214  1011  130.77578  156 6865  172.00000  130.77578  24.0%   344 2802s
  1215  1012  130.77596  246 6883  172.00000  130.77596  24.0%   344 2807s
  1216  1013  131.30094  617 6434  172.00000  130.78626  24.0%   343 2822s
  1217  1013  138.51348  710 6918  172.00000  130.79012  24.0%   343 2833s
  1218  1014  130.79100  261 6958  172.00000  130.79100  24.0%   343 2839s
  1219  1015  130.79116  590 6961  172.00000  130.79116  24.0%   342 2845s
  1220  1015  130.79531  470 6491  172.00000  130.79531  24.0%   342 3113s
  1221  1016  130.79670  294 6766  172.00000  130.79670  24.0%   342 3121s
  1222  1017  133.87147  651 6891  172.00000  130.79731  24.0%   342 3126s
  1223  1017  130.79748  288 6894  172.00000  130.79748  24.0%   341 3132s
  1224  1018  130.80267  200 6535  172.00000  130.80267  24.0%   341 3149s
  1225  1019  130.80410  454 6758  172.00000  130.80410  24.0%   341 3162s
  1226  1019  130.80483  352 6832  172.00000  130.80483  24.0%   340 3165s
  1228  1021  130.80600  585 6922  172.00000  130.80600  23.9%   340 3173s
  1229  1021  130.80785  273 6546  172.00000  130.80785  23.9%   340 3188s
  1230  1022  130.80863  396 7011  172.00000  130.80863  23.9%   339 3199s
  1231  1023  130.80919  389 7101  172.00000  130.80919  23.9%   339 3209s
  1232  1023  130.81592   29 6634  172.00000  130.81592  23.9%   339 3230s
  1233  1024  130.81795  602 6940  172.00000  130.81795  23.9%   339 3240s
  1235  1025  130.82075  230 7032  172.00000  130.82075  23.9%   338 3251s
  1236  1026  130.82307  123 6767  172.00000  130.82307  23.9%   338 3265s
  1237  1027  130.82356   11 7087  172.00000  130.82356  23.9%   337 3274s
  1238  1027  133.87551  649 6923  172.00000  130.82486  23.9%   337 3291s
  1239  1028  133.37185  646 7170  172.00000  130.82530  23.9%   337 3303s
  1240  1029  136.98721  694 6859  172.00000  130.82762  23.9%   337 3316s
  1241  1029  130.82762  390 7157  172.00000  130.82762  23.9%   336 3324s
  1242  1030  130.83043  378 6871  172.00000  130.83043  23.9%   336 3340s
  1245  1033  133.38687  633 3932  172.00000  130.83043  23.9%  1943 3348s
  1247  1034  130.83043  493 5370  172.00000  130.83043  23.9%  1940 3391s
  1248  1035  130.83043  276 3551  172.00000  130.83043  23.9%  1939 3425s
  1249  1036  130.83043  273 4443  172.00000  130.83043  23.9%  1937 3445s
  1250  1036  130.83043  200 4889  172.00000  130.83043  23.9%  1936 3470s
  1251  1037  130.83043  277 5351  172.00000  130.83043  23.9%  1934 3497s
  1252  1038  138.47655  708 5696  172.00000  130.83043  23.9%  1932 3514s
  1253  1038  130.83043  249 5934  172.00000  130.83043  23.9%  1931 3534s
  1254  1039  130.83043  550 6275  172.00000  130.83043  23.9%  1929 3545s
  1255  1040  135.35899  668 6350  172.00000  130.83223  23.9%  1928 3553s
  1256  1040  130.84936  282 6381  172.00000  130.84936  23.9%  1926 3558s
  1257  1041  130.85659  174 6562  172.00000  130.85659  23.9%  1925 3562s
  1258  1042  130.86035  332 6553  172.00000  130.86035  23.9%  1923 3566s
  1260  1043  131.30094  617 6803  172.00000  130.86269  23.9%  1920 3570s
  1262  1044  130.86457  577 6782  172.00000  130.86457  23.9%  1917 3582s

Cutting planes:
  Learned: 5
  Gomory: 10
  Cover: 1177
  Implied bound: 122
  Clique: 340
  MIR: 420
  StrongCG: 13
  Flow cover: 819
  GUB cover: 1201
  Zero half: 265
  RLT: 454
  Relax-and-lift: 149
  BQP: 113
  PSD: 4

Explored 1262 nodes (3195773 simplex iterations) in 3599.77 seconds (3829.49 work units)
Thread count was 1 (of 16 available processors)

Solution count 10: 172 172 173 ... 176

Time limit reached
Best objective 1.720000000000e+02, best bound 1.310000000000e+02, gap 23.8372%

User-callback calls 274085, time in user-callback 0.49 sec
Stat(MathOptInterface.TIME_LIMIT, 172.0, 131.0, 0.23837209302325582, 0.0, 0.325387, 3599.7684049606323, 1262, Main.CFLG.EVFP, "", #undef)
